NAME : global
TYPE : ATSP
DIMENSION : 5
EDGE_WEIGHT_TYPE : EXPLICIT
EDGE_WEIGHT_FORMAT : FULL_MATRIX
EDGE_WEIGHT_SECTION
0 3295 2565 4543 4287 
0 0 4293 3465 3044 
0 4293 0 6680 6317 
0 3465 6680 0 2566 
0 3044 6317 2566 0 
EOF